NAME 
ROWS
 N  OBJ
 L  R0      
 L  R1      
 L  R2      
 E  R3      
 E  R4      
 E  R5      
 E  R6      
 E  R7      
 E  R8      
 E  R9      
 E  R10     
 E  R11     
 E  R12     
 E  R13     
 E  R14     
 E  R15     
 E  R16     
 E  R17     
 E  R18     
 E  R19     
 E  R20     
 E  R21     
 E  R22     
COLUMNS
    MARKER    'MARKER'                 'INTORG'
    I0(13)    OBJ       -121
    I0(13)    R0        18
    I0(13)    R1        -92
    I0(13)    R2        -184
    I0(13)    R3        15
    I0(13)    R6        14
    I0(13)    R7        7
    I0(13)    R8        -1
    I0(13)    R10       17
    I0(13)    R11       17
    I0(13)    R12       -1
    I0(13)    R13       5
    I0(13)    R14       18
    I0(13)    R22       1
    I1(15)    OBJ       68
    I1(15)    R0        1
    I1(15)    R1        141
    I1(15)    R2        -50
    I1(15)    R3        4
    I1(15)    R4        15
    I1(15)    R5        3
    I1(15)    R6        1
    I1(15)    R7        -1
    I1(15)    R8        12
    I1(15)    R9        5
    I1(15)    R10       4
    I1(15)    R12       10
    I1(15)    R13       19
    I1(15)    R14       7
    I1(15)    R22       1
    I2(12)    OBJ       -191
    I2(12)    R0        1
    I2(12)    R1        33
    I2(12)    R2        55
    I2(12)    R3        11
    I2(12)    R4        10
    I2(12)    R7        19
    I2(12)    R8        10
    I2(12)    R10       14
    I2(12)    R11       12
    I2(12)    R12       3
    I2(12)    R13       4
    I2(12)    R22       1
    I3(7)     OBJ       -122
    I3(7)     R0        38
    I3(7)     R1        -170
    I3(7)     R2        140
    I3(7)     R5        14
    I3(7)     R8        14
    I3(7)     R9        6
    I3(7)     R22       1
    I4(11)    OBJ       57
    I4(11)    R0        21
    I4(11)    R1        131
    I4(11)    R2        -18
    I4(11)    R4        18
    I4(11)    R5        12
    I4(11)    R6        19
    I4(11)    R8        6
    I4(11)    R10       8
    I4(11)    R11       3
    I4(11)    R14       9
    I4(11)    R22       1
    I5(13)    OBJ       -104
    I5(13)    R0        88
    I5(13)    R1        156
    I5(13)    R2        49
    I5(13)    R3        2
    I5(13)    R4        3
    I5(13)    R6        15
    I5(13)    R7        19
    I5(13)    R8        10
    I5(13)    R9        16
    I5(13)    R10       5
    I5(13)    R12       8
    I5(13)    R14       -1
    I5(13)    R22       1
    I6(12)    OBJ       113
    I6(12)    R0        -170
    I6(12)    R1        51
    I6(12)    R2        -39
    I6(12)    R3        19
    I6(12)    R5        6
    I6(12)    R6        19
    I6(12)    R7        17
    I6(12)    R8        7
    I6(12)    R9        18
    I6(12)    R12       19
    I6(12)    R13       3
    I6(12)    R22       1
    I7(13)    OBJ       -105
    I7(13)    R0        -182
    I7(13)    R1        135
    I7(13)    R2        -82
    I7(13)    R4        1
    I7(13)    R5        19
    I7(13)    R6        8
    I7(13)    R7        19
    I7(13)    R8        16
    I7(13)    R9        18
    I7(13)    R11       14
    I7(13)    R12       8
    I7(13)    R13       8
    I7(13)    R22       1
    I8(11)    OBJ       112
    I8(11)    R0        -28
    I8(11)    R1        40
    I8(11)    R2        148
    I8(11)    R4        13
    I8(11)    R6        19
    I8(11)    R7        11
    I8(11)    R9        10
    I8(11)    R11       10
    I8(11)    R13       14
    I8(11)    R14       16
    I8(11)    R22       1
    I9(12)    OBJ       124
    I9(12)    R0        -45
    I9(12)    R1        167
    I9(12)    R2        -126
    I9(12)    R3        -1
    I9(12)    R4        7
    I9(12)    R5        4
    I9(12)    R6        16
    I9(12)    R7        10
    I9(12)    R8        18
    I9(12)    R9        15
    I9(12)    R12       2
    I9(12)    R22       1
    I10(11)   OBJ       147
    I10(11)   R0        153
    I10(11)   R1        184
    I10(11)   R2        -17
    I10(11)   R3        1
    I10(11)   R4        7
    I10(11)   R6        1
    I10(11)   R7        12
    I10(11)   R10       15
    I10(11)   R13       2
    I10(11)   R14       1
    I10(11)   R22       1
    I11(13)   OBJ       10
    I11(13)   R0        198
    I11(13)   R1        21
    I11(13)   R2        48
    I11(13)   R4        10
    I11(13)   R5        12
    I11(13)   R6        6
    I11(13)   R8        6
    I11(13)   R9        11
    I11(13)   R10       7
    I11(13)   R11       5
    I11(13)   R13       7
    I11(13)   R14       3
    I11(13)   R22       1
    MARKER    'MARKER'                 'INTEND'
    C12(16)   OBJ       -10
    C12(16)   R0        -8
    C12(16)   R1        6
    C12(16)   R2        -2
    C12(16)   R4        4
    C12(16)   R6        13
    C12(16)   R7        9
    C12(16)   R8        13
    C12(16)   R9        10
    C12(16)   R10       19
    C12(16)   R13       18
    C12(16)   R14       3
    C12(16)   R15       7
    C12(16)   R17       16
    C12(16)   R19       7
    C12(16)   R20       3
    C12(16)   R21       -1
    C13(17)   R0        -6
    C13(17)   R1        7
    C13(17)   R2        8
    C13(17)   R4        18
    C13(17)   R5        15
    C13(17)   R6        -1
    C13(17)   R8        3
    C13(17)   R9        7
    C13(17)   R10       -1
    C13(17)   R11       14
    C13(17)   R13       10
    C13(17)   R14       19
    C13(17)   R17       16
    C13(17)   R18       11
    C13(17)   R19       13
    C13(17)   R20       13
    C13(17)   R21       7
    C14(11)   OBJ       -5
    C14(11)   R0        -5
    C14(11)   R1        -6
    C14(11)   R2        -8
    C14(11)   R3        17
    C14(11)   R7        8
    C14(11)   R8        9
    C14(11)   R9        14
    C14(11)   R12       6
    C14(11)   R14       19
    C14(11)   R18       12
    C14(11)   R19       3
    C15(16)   OBJ       -7
    C15(16)   R0        5
    C15(16)   R1        -4
    C15(16)   R2        -2
    C15(16)   R3        16
    C15(16)   R4        3
    C15(16)   R6        16
    C15(16)   R8        18
    C15(16)   R9        17
    C15(16)   R10       7
    C15(16)   R12       18
    C15(16)   R13       1
    C15(16)   R14       15
    C15(16)   R15       7
    C15(16)   R16       2
    C15(16)   R20       12
    C15(16)   R21       15
    C16(16)   OBJ       -7
    C16(16)   R0        -5
    C16(16)   R1        -4
    C16(16)   R2        -9
    C16(16)   R3        18
    C16(16)   R5        11
    C16(16)   R7        1
    C16(16)   R8        7
    C16(16)   R9        9
    C16(16)   R10       7
    C16(16)   R11       17
    C16(16)   R13       4
    C16(16)   R14       -1
    C16(16)   R17       10
    C16(16)   R19       11
    C16(16)   R20       18
    C16(16)   R21       7
    C17(12)   OBJ       9
    C17(12)   R0        9
    C17(12)   R1        4
    C17(12)   R2        -5
    C17(12)   R6        5
    C17(12)   R7        11
    C17(12)   R9        4
    C17(12)   R14       5
    C17(12)   R15       4
    C17(12)   R16       1
    C17(12)   R18       16
    C17(12)   R20       14
    C17(12)   R21       15
    C18(14)   OBJ       6
    C18(14)   R0        -8
    C18(14)   R1        1
    C18(14)   R2        8
    C18(14)   R3        5
    C18(14)   R4        13
    C18(14)   R5        8
    C18(14)   R8        7
    C18(14)   R9        6
    C18(14)   R11       18
    C18(14)   R12       19
    C18(14)   R13       -1
    C18(14)   R17       5
    C18(14)   R18       13
    C18(14)   R20       9
    C19(15)   OBJ       -10
    C19(15)   R0        -8
    C19(15)   R1        9
    C19(15)   R2        3
    C19(15)   R3        9
    C19(15)   R4        5
    C19(15)   R6        5
    C19(15)   R7        16
    C19(15)   R11       7
    C19(15)   R12       1
    C19(15)   R15       9
    C19(15)   R16       6
    C19(15)   R18       5
    C19(15)   R19       14
    C19(15)   R20       17
    C19(15)   R21       3
    C20(1)    R3        1
    C21(1)    R4        1
    C22(1)    R5        1
    C23(1)    R6        1
    C24(1)    R7        1
    C25(1)    R8        1
    C26(1)    R9        1
    C27(1)    R10       1
    C28(1)    R11       1
    C29(1)    R12       1
    C30(1)    R13       1
    C31(1)    R14       1
    C32(1)    R15       1
    C33(1)    R16       1
    C34(1)    R17       1
    C35(1)    R18       1
    C36(1)    R19       1
    C37(1)    R20       1
    C38(1)    R21       1
    C39(1)    R22       1
RHS
    RHS1      R0        -1.4699240871171315e+02
    RHS1      R1        -8.6037672275559686e+01
    RHS1      R2        -8.3937706781415159e+01
    RHS1      R3        56
    RHS1      R4        61
    RHS1      R5        78
    RHS1      R6        71
    RHS1      R7        68
    RHS1      R8        75
    RHS1      R9        50
    RHS1      R10       66
    RHS1      R11       97
    RHS1      R12       64
    RHS1      R13       96
    RHS1      R14       73
    RHS1      R15       76
    RHS1      R16       92
    RHS1      R17       53
    RHS1      R18       68
    RHS1      R19       91
    RHS1      R20       78
    RHS1      R21       99
    RHS1      R22       4
BOUNDS
 UP BND1      I0(13)    1
 UP BND1      I1(15)    1
 UP BND1      I2(12)    1
 UP BND1      I3(7)     1
 UP BND1      I4(11)    1
 UP BND1      I5(13)    1
 UP BND1      I6(12)    1
 UP BND1      I7(13)    1
 UP BND1      I8(11)    1
 UP BND1      I9(12)    1
 UP BND1      I10(11)   1
 UP BND1      I11(13)   1
ENDATA
